
Gurobi 9.0.1 (linux64) logging started Thu Apr 30 17:32:11 2020

Gurobi Optimizer version 9.0.1 build v9.0.1rc0 (linux64)
Optimize a model with 13307 rows, 12060 columns and 202950 nonzeros
Model fingerprint: 0x8a36b913
Variable types: 0 continuous, 12060 integer (12032 binary)
Coefficient statistics:
  Matrix range     [1e+00, 1e+01]
  Objective range  [5e+00, 1e+02]
  Bounds range     [1e+00, 1e+00]
  RHS range        [1e+00, 1e+00]

User MIP start produced solution with objective 1048 (0.28s)
Loaded user MIP start with objective 1048

Presolve removed 5054 rows and 3900 columns
Presolve time: 3.10s
Presolved: 8253 rows, 8160 columns, 165405 nonzeros
Variable types: 0 continuous, 8160 integer (8134 binary)

Root simplex log...

Iteration    Objective       Primal Inf.    Dual Inf.      Time
    2487    5.8533342e+02   5.091022e+03   0.000000e+00      5s
    6445    6.0046574e+02   1.634579e+03   0.000000e+00     10s
    9003    6.0621782e+02   6.849733e+02   0.000000e+00     15s
   10905    6.0710153e+02   0.000000e+00   0.000000e+00     20s

Root relaxation: objective 6.071015e+02, 10905 iterations, 16.61 seconds

    Nodes    |    Current Node    |     Objective Bounds      |     Work
 Expl Unexpl |  Obj  Depth IntInf | Incumbent    BestBd   Gap | It/Node Time

     0     0  607.10153    0 1567 1048.00000  607.10153  42.1%     -   21s
     0     0  642.52754    0 1628 1048.00000  642.52754  38.7%     -   48s
     0     0  642.96636    0 1556 1048.00000  642.96636  38.6%     -   54s
     0     0  642.98296    0 1556 1048.00000  642.98296  38.6%     -   55s
     0     0  642.98296    0 1554 1048.00000  642.98296  38.6%     -   56s
     0     0  663.77614    0 1578 1048.00000  663.77614  36.7%     -   87s
     0     0  672.09935    0 1650 1048.00000  672.09935  35.9%     -  110s
     0     0  672.20447    0 1629 1048.00000  672.20447  35.9%     -  114s
     0     0  672.21995    0 1629 1048.00000  672.21995  35.9%     -  115s
     0     0  672.22139    0 1627 1048.00000  672.22139  35.9%     -  116s
     0     0  679.06244    0 1669 1048.00000  679.06244  35.2%     -  156s
     0     0  679.42392    0 1656 1048.00000  679.42392  35.2%     -  166s
     0     0  679.46638    0 1669 1048.00000  679.46638  35.2%     -  168s
     0     0  679.48875    0 1678 1048.00000  679.48875  35.2%     -  171s
     0     0  679.49096    0 1675 1048.00000  679.49096  35.2%     -  171s
     0     0  684.64338    0 1678 1048.00000  684.64338  34.7%     -  215s
     0     0  684.99832    0 1635 1048.00000  684.99832  34.6%     -  226s
     0     0  685.07998    0 1642 1048.00000  685.07998  34.6%     -  229s
     0     0  685.09401    0 1655 1048.00000  685.09401  34.6%     -  231s
     0     0  686.19859    0 1641 1048.00000  686.19859  34.5%     -  253s
     0     0  686.40288    0 1640 1048.00000  686.40288  34.5%     -  262s
     0     0  686.94044    0 1657 1048.00000  686.94044  34.5%     -  271s
     0     0  686.97648    0 1677 1048.00000  686.97648  34.4%     -  274s
     0     0  686.98273    0 1679 1048.00000  686.98273  34.4%     -  275s
     0     0  688.04702    0 1673 1048.00000  688.04702  34.3%     -  296s
     0     0  688.55877    0 1688 1048.00000  688.55877  34.3%     -  306s
     0     0  688.60094    0 1704 1048.00000  688.60094  34.3%     -  310s
     0     0  688.60379    0 1701 1048.00000  688.60379  34.3%     -  311s
     0     0  689.25582    0 1679 1048.00000  689.25582  34.2%     -  325s
     0     0  689.43225    0 1697 1048.00000  689.43225  34.2%     -  334s
     0     0  689.46678    0 1700 1048.00000  689.46678  34.2%     -  336s
     0     0  689.48127    0 1711 1048.00000  689.48127  34.2%     -  338s
     0     0  690.57534    0 1739 1048.00000  690.57534  34.1%     -  353s
     0     0  690.75531    0 1725 1048.00000  690.75531  34.1%     -  363s
     0     0  690.78485    0 1714 1048.00000  690.78485  34.1%     -  365s
     0     0  690.79712    0 1731 1048.00000  690.79712  34.1%     -  367s
     0     0  691.17795    0 1750 1048.00000  691.17795  34.0%     -  378s
     0     0  691.24200    0 1743 1048.00000  691.24200  34.0%     -  387s
     0     0  691.25309    0 1753 1048.00000  691.25309  34.0%     -  389s
     0     0  691.55270    0 1757 1048.00000  691.55270  34.0%     -  397s
     0     0  691.62480    0 1745 1048.00000  691.62480  34.0%     -  407s
     0     0  691.64329    0 1769 1048.00000  691.64329  34.0%     -  409s
     0     0  692.03153    0 1759 1048.00000  692.03153  34.0%     -  418s
     0     0  692.11540    0 1756 1048.00000  692.11540  34.0%     -  423s
     0     0  692.14388    0 1774 1048.00000  692.14388  34.0%     -  425s
     0     0  692.36016    0 1738 1048.00000  692.36016  33.9%     -  433s
     0     0  692.36016    0 1738 1048.00000  692.36016  33.9%     -  438s
     0     0  692.36670    0 1536 1048.00000  692.36670  33.9%     -  482s
     0     0  692.36670    0 1604 1048.00000  692.36670  33.9%     -  521s
     0     0  692.36670    0 1642 1048.00000  692.36670  33.9%     -  563s
     0     0  692.36670    0 1664 1048.00000  692.36670  33.9%     -  597s
     0     0  692.85337    0 1718 1048.00000  692.85337  33.9%     -  608s
     0     0  692.96121    0 1724 1048.00000  692.96121  33.9%     -  613s
     0     0  692.99584    0 1733 1048.00000  692.99584  33.9%     -  615s
     0     0  692.99866    0 1740 1048.00000  692.99866  33.9%     -  616s
     0     0  693.30691    0 1742 1048.00000  693.30691  33.8%     -  628s
     0     0  693.34107    0 1740 1048.00000  693.34107  33.8%     -  633s
     0     0  693.90544    0 1737 1048.00000  693.90544  33.8%     -  656s
     0     0  694.05413    0 1738 1048.00000  694.05413  33.8%     -  662s
     0     0  694.08431    0 1732 1048.00000  694.08431  33.8%     -  664s
     0     0  694.60641    0 1724 1048.00000  694.60641  33.7%     -  684s
     0     0  694.72491    0 1738 1048.00000  694.72491  33.7%     -  689s
     0     0  694.75243    0 1754 1048.00000  694.75243  33.7%     -  691s
     0     0  694.93412    0 1751 1048.00000  694.93412  33.7%     -  700s
     0     0  694.96934    0 1756 1048.00000  694.96934  33.7%     -  705s
     0     0  695.11174    0 1747 1048.00000  695.11174  33.7%     -  713s
     0     0  695.11174    0 1747 1048.00000  695.11174  33.7%     -  717s
     0     2  695.11726    0 1747 1048.00000  695.11726  33.7%     -  754s
     1     4  711.38543    1 1582 1048.00000  695.11726  33.7% 19683  819s
     2     5  696.78740    1 1718 1048.00000  696.78740  33.5% 12310  836s
     3     5  697.85485    2 1712 1048.00000  696.78740  33.5%  9462  849s
     4     6  727.70054    2 1376 1048.00000  697.85485  33.4% 14203  948s
     5     7  698.14686    3 1712 1048.00000  697.85485  33.4% 11704  954s
     6     8  720.35006    3 1471 1048.00000  698.14763  33.4% 13929 1040s
     7     9  698.47475    4 1670 1048.00000  698.16093  33.4% 12167 1046s
     8    10  725.50223    4 1425 1048.00000  698.47475  33.4% 15651 1179s
     9    11  699.36652    5 1652 1048.00000  698.47475  33.4% 14368 1193s
    10    12  713.76040    5 1530 1048.00000  699.36652  33.3% 14504 1237s
    11    13  701.75442    6 1627 1048.00000  699.36652  33.3% 13914 1261s
    12    14  710.01233    6 1564 1048.00000  701.75442  33.0% 14304 1316s
    13    15  702.05496    7 1624 1048.00000  701.75442  33.0% 13415 1324s
    14    16  721.44173    7 1389 1048.00000  702.05496  33.0% 14097 1387s
    15    17  702.70368    8 1634 1048.00000  702.05496  33.0% 13448 1400s
    16    18  716.25912    8 1476 1048.00000  702.70368  32.9% 13537 1480s
    18    20  718.63264    9 1510 1048.00000  702.81797  32.9% 13365 1561s
    19    21  703.19781   10 1593 1048.00000  702.81797  32.9% 12812 1569s
    20    22  722.64266   10 1515 1048.00000  703.19832  32.9% 13068 1618s
    21    23  704.14022   11 1656 1048.00000  703.19832  32.9% 12588 1628s
    23    25  704.17596   13 1628 1048.00000  703.19832  32.9% 11534 1631s
    24    26  711.08412   14 1526 1048.00000  703.19832  32.9% 11739 1680s
    25    27  706.04761   14 1665 1048.00000  703.19832  32.9% 11504 1700s
    26    28  727.44101   15 1490 1048.00000  703.19832  32.9% 11822 1748s
    27    29  706.27749   15 1636 1048.00000  703.19832  32.9% 11451 1754s
    28    30  725.83605   16 1366 1048.00000  703.19832  32.9% 12033 1840s
    29    31  706.96723   16 1682 1048.00000  703.19832  32.9% 11806 1857s
    30    32  730.05284   17 1437 1048.00000  703.19832  32.9% 12291 1920s
    31    33  707.74926   17 1621 1048.00000  703.19832  32.9% 12054 1936s
    32    34  708.77032   18 1643 1048.00000  703.19832  32.9% 11780 1948s
    33    35  709.94152   19 1632 1048.00000  703.19832  32.9% 11529 1960s
    34    36  735.62301   20 1488 1048.00000  703.19832  32.9% 12417 2095s
    35    37  710.43705   20 1620 1048.00000  703.19832  32.9% 12182 2107s
    36    38  728.25607   21 1519 1048.00000  703.19832  32.9% 12445 2184s
    37    39  710.86888   21 1619 1048.00000  703.19832  32.9% 12177 2192s
    39    41  725.03893   23 1472 1048.00000  703.19832  32.9% 12086 2259s
    40    42  712.01573   23 1623 1048.00000  703.19832  32.9% 11899 2274s
    41    43  735.14485   24 1482 1048.00000  703.19832  32.9% 12315 2368s
    42    44  713.35697   24 1624 1048.00000  703.19832  32.9% 12155 2382s
    43    45  713.64263   25 1620 1048.00000  703.19832  32.9% 11949 2391s
    44    46  738.85993   26 1471 1048.00000  703.19832  32.9% 12142 2442s
    45    47  714.32692   26 1610 1048.00000  703.19832  32.9% 11935 2452s
    46    48  733.28937   27 1449 1048.00000  703.19832  32.9% 12342 2548s
    47    49  716.42591   27 1601 1048.00000  703.19832  32.9% 12259 2569s
    48    50  716.44600   28 1574 1048.00000  703.19832  32.9% 12016 2571s
    49    51  736.51030   29 1415 1048.00000  703.19832  32.9% 12210 2625s
    50    52  717.58096   29 1570 1048.00000  703.19832  32.9% 12032 2635s
    51    53  736.73914   30 1409 1048.00000  703.19832  32.9% 12399 2734s
    52    54  717.70348   30 1585 1048.00000  703.19832  32.9% 12199 2739s
    53    55  733.66652   31 1407 1048.00000  703.19832  32.9% 12265 2776s
    54    56  717.77716   31 1597 1048.00000  703.19832  32.9% 12071 2782s
    55    57  751.77006   32 1464 1048.00000  703.19832  32.9% 12205 2831s
    56    58  718.54532   32 1581 1048.00000  703.19832  32.9% 12036 2839s
    57    59  740.91016   33 1442 1048.00000  703.19832  32.9% 12350 2933s
    58    60  718.89421   33 1593 1048.00000  703.19832  32.9% 12204 2944s
    59    61  720.06257   34 1636 1048.00000  703.19832  32.9% 12099 2961s
    60    62  738.05056   34 1430 1048.00000  703.19832  32.9% 12217 3009s
    61    63  720.74030   35 1622 1048.00000  703.19832  32.9% 12068 3020s
    62    64  740.83531   35 1328 1048.00000  703.19832  32.9% 12251 3094s
    63    65  725.74583   36 1441 1048.00000  703.19832  32.9% 12285 3138s
    64    66  720.90222   36 1583 1048.00000  703.19832  32.9% 12111 3142s
    65    67  722.45963   37 1558 1048.00000  703.19832  32.9% 11994 3159s
    66    68  739.42990   37 1455 1048.00000  703.19832  32.9% 12207 3246s
    67    69  722.71249   38 1590 1048.00000  703.19832  32.9% 12068 3253s
    68    70  740.70417   38 1534 1048.00000  703.19832  32.9% 12181 3304s
    69    71  723.06632   39 1576 1048.00000  703.19832  32.9% 12028 3309s
    70    72  741.78628   39 1405 1048.00000  703.19832  32.9% 12208 3392s
    71    73  723.20788   40 1550 1048.00000  703.19832  32.9% 12062 3397s
    72    74  745.98044   40 1424 1048.00000  703.19832  32.9% 12159 3443s
    73    75  724.29406   41 1561 1048.00000  703.19832  32.9% 12021 3450s
    74    76  765.90119   42 1409 1048.00000  703.19832  32.9% 12129 3515s
    75    77  724.60718   42 1556 1048.00000  703.19832  32.9% 11997 3521s
    76    78  747.24347   43 1466 1048.00000  703.19832  32.9% 12075 3570s

Cutting planes:
  Gomory: 2
  Cover: 3
  MIR: 75
  StrongCG: 6
  GUB cover: 2
  Zero half: 54
  Mod-K: 4
  RLT: 876

Explored 78 nodes (1090159 simplex iterations) in 3600.01 seconds
Thread count was 1 (of 40 available processors)

Solution count 1: 1048 

Time limit reached
Best objective 1.048000000000e+03, best bound 7.040000000000e+02, gap 32.8244%

User-callback calls 26953, time in user-callback 0.05 sec
